; PUSH cw_1 SWAP2 SWAP3 SWAP1 DUP2 SWAP3 => DUP3 SWAP2 SWAP3 SWAP1 PUSH cw_1
(set-option :produce-proofs true)
; 
(set-info :status unknown)
(declare-fun storage_t ((_ BitVec 256) (_ BitVec 256) (_ BitVec 256) (_ BitVec 256) Int (_ BitVec 256)) (_ BitVec 256))
(declare-fun w_1 () (_ BitVec 256))
(declare-fun storage_s ((_ BitVec 256) (_ BitVec 256) (_ BitVec 256) (_ BitVec 256) Int (_ BitVec 256)) (_ BitVec 256))
(declare-fun exc_halt_t (Int) Bool)
(declare-fun exc_halt_s (Int) Bool)
(declare-fun stack_t ((_ BitVec 256) (_ BitVec 256) (_ BitVec 256) (_ BitVec 256) Int (_ BitVec 6)) (_ BitVec 256))
(declare-fun stack_s ((_ BitVec 256) (_ BitVec 256) (_ BitVec 256) (_ BitVec 256) Int (_ BitVec 6)) (_ BitVec 256))
(declare-fun sc_t (Int) (_ BitVec 6))
(declare-fun sc_s (Int) (_ BitVec 6))
(declare-fun used_gas_t ((_ BitVec 256) (_ BitVec 256) (_ BitVec 256) (_ BitVec 256) Int) Int)
(declare-fun used_gas_s ((_ BitVec 256) (_ BitVec 256) (_ BitVec 256) (_ BitVec 256) Int) Int)
(assert
 (exists ((x_0 (_ BitVec 256)) (x_1 (_ BitVec 256)) (x_2 (_ BitVec 256)) )(let (($x6059 (forall ((w (_ BitVec 256)) )(let ((?x6743 (storage_t x_0 x_1 x_2 w_1 5 w)))
 (let ((?x6728 (storage_s x_0 x_1 x_2 w_1 6 w)))
 (= ?x6728 ?x6743))))
 ))
 (let (($x886 (exc_halt_t 5)))
 (let (($x772 (exc_halt_s 6)))
 (let (($x889 (= $x772 $x886)))
 (let (($x9707 (forall ((n (_ BitVec 6)) )(let ((?x6689 (stack_t x_0 x_1 x_2 w_1 5 n)))
 (let ((?x6364 (stack_s x_0 x_1 x_2 w_1 6 n)))
 (let (($x6057 (= ?x6364 ?x6689)))
 (or (bvsle (sc_t 5) n) $x6057)))))
 ))
 (let ((?x919 (sc_t 5)))
 (let ((?x926 (sc_s 6)))
 (let (($x929 (= ?x926 ?x919)))
 (let ((?x9977 (used_gas_t x_0 x_1 x_2 w_1 0)))
 (let ((?x3556 (used_gas_s x_0 x_1 x_2 w_1 0)))
 (let (($x9994 (= ?x3556 ?x9977)))
 (let (($x6010 (forall ((w (_ BitVec 256)) )(let ((?x3049 (storage_t x_0 x_1 x_2 w_1 0 w)))
 (let ((?x8578 (storage_s x_0 x_1 x_2 w_1 0 w)))
 (= ?x8578 ?x3049))))
 ))
 (let (($x56 (exc_halt_t 0)))
 (let (($x57 (exc_halt_s 0)))
 (let (($x58 (= $x57 $x56)))
 (let (($x6971 (forall ((n (_ BitVec 6)) )(let ((?x6024 (stack_t x_0 x_1 x_2 w_1 0 n)))
 (let ((?x9308 (stack_s x_0 x_1 x_2 w_1 0 n)))
 (let (($x8974 (= ?x9308 ?x6024)))
 (let ((?x63 (sc_t 0)))
 (let (($x5330 (bvsle ?x63 n)))
 (or $x5330 $x8974)))))))
 ))
 (let ((?x63 (sc_t 0)))
 (let ((?x72 (sc_s 0)))
 (let (($x73 (= ?x72 ?x63)))
 (let (($x7958 (exc_halt_t 4)))
 (let (($x9335 (or $x7958 (not (= ((_ extract 6 6) (bvadd (_ bv1 7) (concat (_ bv0 1) (sc_t 4)))) (_ bv0 1))))))
 (let (($x1469 (forall ((w (_ BitVec 256)) )(let ((?x8977 (storage_t x_0 x_1 x_2 w_1 4 w)))
 (let ((?x6743 (storage_t x_0 x_1 x_2 w_1 5 w)))
 (= ?x6743 ?x8977))))
 ))
 (let (($x9752 (forall ((n (_ BitVec 6)) )(let ((?x5924 (stack_t x_0 x_1 x_2 w_1 4 n)))
 (let ((?x6689 (stack_t x_0 x_1 x_2 w_1 5 n)))
 (let ((?x5915 (sc_t 4)))
 (let (($x5854 (bvsle ?x5915 n)))
 (or $x5854 (= ?x6689 ?x5924)))))))
 ))
 (let (($x9313 (= (used_gas_t x_0 x_1 x_2 w_1 5) (+ 3 (used_gas_t x_0 x_1 x_2 w_1 4)))))
 (let (($x9675 (= $x7958 (or (exc_halt_t 3) (not (bvsle (_ bv0 6) (bvadd (_ bv62 6) (sc_t 3))))))))
 (let (($x9151 (forall ((w (_ BitVec 256)) )(let ((?x3676 (storage_t x_0 x_1 x_2 w_1 3 w)))
 (let ((?x8977 (storage_t x_0 x_1 x_2 w_1 4 w)))
 (= ?x8977 ?x3676))))
 ))
 (let (($x836 (forall ((n (_ BitVec 6)) )(let ((?x6939 (stack_t x_0 x_1 x_2 w_1 3 n)))
 (let ((?x5924 (stack_t x_0 x_1 x_2 w_1 4 n)))
 (let (($x10270 (= ?x5924 ?x6939)))
 (or (bvsle (bvadd (_ bv62 6) (sc_t 3)) n) $x10270)))))
 ))
 (let ((?x6204 (used_gas_t x_0 x_1 x_2 w_1 4)))
 (let (($x10445 (= ?x6204 (+ 3 (used_gas_t x_0 x_1 x_2 w_1 3)))))
 (let ((?x2012 (sc_t 3)))
 (let ((?x8802 (bvadd (_ bv63 6) ?x2012)))
 (let ((?x7811 (stack_t x_0 x_1 x_2 w_1 3 ?x8802)))
 (let (($x9617 (= (stack_t x_0 x_1 x_2 w_1 4 (bvadd (_ bv62 6) (sc_t 4))) ?x7811)))
 (let ((?x9565 (bvadd (_ bv62 6) ?x2012)))
 (let ((?x9943 (stack_t x_0 x_1 x_2 w_1 3 ?x9565)))
 (let (($x7807 (= (stack_t x_0 x_1 x_2 w_1 4 (bvadd (_ bv63 6) (sc_t 4))) ?x9943)))
 (let (($x10336 (exc_halt_t 3)))
 (let (($x14 (= $x10336 (or (exc_halt_t 2) (not (bvsle (_ bv0 6) (bvadd (_ bv60 6) (sc_t 2))))))))
 (let (($x1900 (forall ((w (_ BitVec 256)) )(let ((?x9685 (storage_t x_0 x_1 x_2 w_1 2 w)))
 (let ((?x3676 (storage_t x_0 x_1 x_2 w_1 3 w)))
 (= ?x3676 ?x9685))))
 ))
 (let (($x9412 (forall ((n (_ BitVec 6)) )(let ((?x553 (stack_t x_0 x_1 x_2 w_1 2 n)))
 (let ((?x6939 (stack_t x_0 x_1 x_2 w_1 3 n)))
 (let (($x6375 (= ?x6939 ?x553)))
 (or (bvsle (bvadd (_ bv60 6) (sc_t 2)) n) $x6375)))))
 ))
 (let ((?x4056 (sc_t 2)))
 (let (($x8106 (= ?x2012 ?x4056)))
 (let ((?x6011 (used_gas_t x_0 x_1 x_2 w_1 3)))
 (let (($x6359 (= ?x6011 (+ 3 (used_gas_t x_0 x_1 x_2 w_1 2)))))
 (let ((?x5737 (bvadd (_ bv61 6) ?x4056)))
 (let ((?x9803 (stack_t x_0 x_1 x_2 w_1 2 ?x5737)))
 (let ((?x7277 (bvadd (_ bv63 6) ?x4056)))
 (let ((?x9514 (stack_t x_0 x_1 x_2 w_1 2 ?x7277)))
 (let (($x903 (exc_halt_t 2)))
 (let (($x5895 (= $x903 (or (exc_halt_t 1) (not (bvsle (_ bv0 6) (bvadd (_ bv61 6) (sc_t 1))))))))
 (let (($x6377 (forall ((w (_ BitVec 256)) )(let ((?x1878 (storage_t x_0 x_1 x_2 w_1 1 w)))
 (let ((?x9685 (storage_t x_0 x_1 x_2 w_1 2 w)))
 (= ?x9685 ?x1878))))
 ))
 (let (($x2318 (forall ((n (_ BitVec 6)) )(let ((?x211 (stack_t x_0 x_1 x_2 w_1 1 n)))
 (let ((?x553 (stack_t x_0 x_1 x_2 w_1 2 n)))
 (let ((?x4023 (sc_t 1)))
 (let ((?x10397 (bvadd (_ bv61 6) ?x4023)))
 (let (($x1361 (bvsle ?x10397 n)))
 (or $x1361 (= ?x553 ?x211))))))))
 ))
 (let ((?x4023 (sc_t 1)))
 (let (($x5262 (= ?x4056 ?x4023)))
 (let ((?x5869 (used_gas_t x_0 x_1 x_2 w_1 2)))
 (let (($x671 (= ?x5869 (+ 3 (used_gas_t x_0 x_1 x_2 w_1 1)))))
 (let ((?x5253 (bvadd (_ bv62 6) ?x4056)))
 (let ((?x4686 (stack_t x_0 x_1 x_2 w_1 2 ?x5253)))
 (let (($x9828 (= ?x4686 (stack_t x_0 x_1 x_2 w_1 1 (bvadd (_ bv62 6) ?x4023)))))
 (let ((?x5476 (bvadd (_ bv63 6) ?x4023)))
 (let ((?x865 (stack_t x_0 x_1 x_2 w_1 1 ?x5476)))
 (let (($x2635 (= ?x9803 ?x865)))
 (let (($x3505 (= ?x9514 (stack_t x_0 x_1 x_2 w_1 1 (bvadd (_ bv61 6) ?x4023)))))
 (let (($x7460 (not (= ((_ extract 6 6) (bvadd (_ bv1 7) (concat (_ bv0 1) ?x63))) (_ bv0 1)))))
 (let (($x1920 (exc_halt_t 1)))
 (let (($x10446 (= $x1920 (or $x56 (not (bvsle (_ bv0 6) (bvadd (_ bv61 6) ?x63))) $x7460))))
 (let (($x187 (forall ((w (_ BitVec 256)) )(let ((?x3049 (storage_t x_0 x_1 x_2 w_1 0 w)))
 (let ((?x1878 (storage_t x_0 x_1 x_2 w_1 1 w)))
 (= ?x1878 ?x3049))))
 ))
 (let (($x9876 (forall ((n (_ BitVec 6)) )(let ((?x6024 (stack_t x_0 x_1 x_2 w_1 0 n)))
 (let ((?x211 (stack_t x_0 x_1 x_2 w_1 1 n)))
 (or (bvsle (bvadd (_ bv61 6) (sc_t 0)) n) (= ?x211 ?x6024)))))
 ))
 (let (($x7167 (= ?x4023 (bvadd (_ bv1 6) ?x63))))
 (let ((?x8258 (used_gas_t x_0 x_1 x_2 w_1 1)))
 (let (($x787 (= ?x8258 (+ 3 ?x9977))))
 (let (($x10544 (= (stack_t x_0 x_1 x_2 w_1 1 (bvadd (_ bv63 6) ?x63)) (stack_t x_0 x_1 x_2 w_1 0 (bvadd (_ bv63 6) ?x63)))))
 (let (($x10447 (= (stack_t x_0 x_1 x_2 w_1 1 (bvadd (_ bv62 6) ?x63)) (stack_t x_0 x_1 x_2 w_1 0 (bvadd (_ bv62 6) ?x63)))))
 (let ((?x8826 (bvadd (_ bv61 6) ?x63)))
 (let ((?x10556 (stack_t x_0 x_1 x_2 w_1 0 ?x8826)))
 (let (($x9001 (= (stack_t x_0 x_1 x_2 w_1 1 ?x8826) ?x10556)))
 (let (($x863 (= ?x865 ?x10556)))
 (let (($x824 (= $x772 (or (exc_halt_s 5) (not (bvsle (_ bv0 6) (bvadd (_ bv60 6) (sc_s 5))))))))
 (let (($x841 (forall ((w (_ BitVec 256)) )(let ((?x6019 (storage_s x_0 x_1 x_2 w_1 5 w)))
 (let ((?x6728 (storage_s x_0 x_1 x_2 w_1 6 w)))
 (= ?x6728 ?x6019))))
 ))
 (let (($x103 (forall ((n (_ BitVec 6)) )(let ((?x3292 (stack_s x_0 x_1 x_2 w_1 5 n)))
 (let ((?x6364 (stack_s x_0 x_1 x_2 w_1 6 n)))
 (or (= ?x6364 ?x3292) (bvsle (bvadd (_ bv60 6) (sc_s 5)) n)))))
 ))
 (let ((?x805 (sc_s 5)))
 (let (($x5196 (= ?x926 ?x805)))
 (let (($x9656 (= (used_gas_s x_0 x_1 x_2 w_1 6) (+ 3 (used_gas_s x_0 x_1 x_2 w_1 5)))))
 (let ((?x5536 (bvadd (_ bv62 6) ?x805)))
 (let ((?x6367 (stack_s x_0 x_1 x_2 w_1 5 ?x5536)))
 (let (($x9324 (= (stack_s x_0 x_1 x_2 w_1 6 (bvadd (_ bv61 6) ?x926)) (stack_s x_0 x_1 x_2 w_1 5 (bvadd (_ bv61 6) ?x805)))))
 (let ((?x5459 (bvadd (_ bv63 6) ?x805)))
 (let ((?x6293 (stack_s x_0 x_1 x_2 w_1 5 ?x5459)))
 (let (($x6647 (= (stack_s x_0 x_1 x_2 w_1 6 (bvadd (_ bv63 6) ?x926)) (stack_s x_0 x_1 x_2 w_1 5 (bvadd (_ bv60 6) ?x805)))))
 (let (($x513 (not (bvsle (_ bv0 6) (bvadd (_ bv62 6) (sc_s 4))))))
 (let (($x64 (exc_halt_s 4)))
 (let (($x3207 (or $x64 $x513 (not (= ((_ extract 6 6) (bvadd (_ bv1 7) (concat (_ bv0 1) (sc_s 4)))) (_ bv0 1))))))
 (let (($x3979 (exc_halt_s 5)))
 (let (($x7138 (forall ((w (_ BitVec 256)) )(let ((?x9590 (storage_s x_0 x_1 x_2 w_1 4 w)))
 (let ((?x6019 (storage_s x_0 x_1 x_2 w_1 5 w)))
 (= ?x6019 ?x9590))))
 ))
 (let (($x892 (forall ((n (_ BitVec 6)) )(let ((?x2806 (stack_s x_0 x_1 x_2 w_1 4 n)))
 (let ((?x3292 (stack_s x_0 x_1 x_2 w_1 5 n)))
 (or (bvsle (bvadd (_ bv62 6) (sc_s 4)) n) (= ?x3292 ?x2806)))))
 ))
 (let ((?x9283 (used_gas_s x_0 x_1 x_2 w_1 5)))
 (let (($x8609 (= ?x9283 (+ 3 (used_gas_s x_0 x_1 x_2 w_1 4)))))
 (let ((?x4305 (sc_s 4)))
 (let ((?x1295 (bvadd (_ bv63 6) ?x4305)))
 (let ((?x512 (stack_s x_0 x_1 x_2 w_1 4 ?x1295)))
 (let ((?x8662 (bvadd (_ bv62 6) ?x4305)))
 (let ((?x3895 (stack_s x_0 x_1 x_2 w_1 4 ?x8662)))
 (let (($x2823 (= ?x6293 ?x3895)))
 (let (($x5426 (= $x64 (or (exc_halt_s 3) (not (bvsle (_ bv0 6) (bvadd (_ bv62 6) (sc_s 3))))))))
 (let (($x6380 (forall ((w (_ BitVec 256)) )(let ((?x9507 (storage_s x_0 x_1 x_2 w_1 3 w)))
 (let ((?x9590 (storage_s x_0 x_1 x_2 w_1 4 w)))
 (= ?x9590 ?x9507))))
 ))
 (let (($x6756 (forall ((n (_ BitVec 6)) )(let ((?x9282 (stack_s x_0 x_1 x_2 w_1 3 n)))
 (let ((?x2806 (stack_s x_0 x_1 x_2 w_1 4 n)))
 (let (($x9437 (= ?x2806 ?x9282)))
 (let ((?x275 (sc_s 3)))
 (let ((?x5404 (bvadd (_ bv62 6) ?x275)))
 (let (($x5405 (bvsle ?x5404 n)))
 (or $x5405 $x9437))))))))
 ))
 (let ((?x275 (sc_s 3)))
 (let (($x8379 (= ?x4305 ?x275)))
 (let ((?x9870 (used_gas_s x_0 x_1 x_2 w_1 4)))
 (let (($x6391 (= ?x9870 (+ 3 (used_gas_s x_0 x_1 x_2 w_1 3)))))
 (let (($x292 (exc_halt_s 3)))
 (let (($x8154 (= $x292 (or (exc_halt_s 2) (not (bvsle (_ bv0 6) (bvadd (_ bv60 6) (sc_s 2))))))))
 (let (($x9337 (forall ((w (_ BitVec 256)) )(let ((?x10321 (storage_s x_0 x_1 x_2 w_1 2 w)))
 (let ((?x9507 (storage_s x_0 x_1 x_2 w_1 3 w)))
 (= ?x9507 ?x10321))))
 ))
 (let (($x2296 (forall ((n (_ BitVec 6)) )(let ((?x218 (sc_s 2)))
 (let ((?x7588 (bvadd (_ bv60 6) ?x218)))
 (let (($x5272 (bvsle ?x7588 n)))
 (let ((?x6572 (stack_s x_0 x_1 x_2 w_1 2 n)))
 (let ((?x9282 (stack_s x_0 x_1 x_2 w_1 3 n)))
 (let (($x894 (= ?x9282 ?x6572)))
 (or $x894 $x5272))))))))
 ))
 (let ((?x218 (sc_s 2)))
 (let (($x5222 (= ?x275 ?x218)))
 (let ((?x9009 (used_gas_s x_0 x_1 x_2 w_1 3)))
 (let (($x1375 (= ?x9009 (+ 3 (used_gas_s x_0 x_1 x_2 w_1 2)))))
 (let ((?x7578 (bvadd (_ bv62 6) ?x218)))
 (let ((?x941 (stack_s x_0 x_1 x_2 w_1 2 ?x7578)))
 (let ((?x5404 (bvadd (_ bv62 6) ?x275)))
 (let ((?x955 (stack_s x_0 x_1 x_2 w_1 3 ?x5404)))
 (let ((?x5163 (bvadd (_ bv61 6) ?x218)))
 (let ((?x526 (stack_s x_0 x_1 x_2 w_1 2 ?x5163)))
 (let ((?x7656 (bvadd (_ bv61 6) ?x275)))
 (let ((?x516 (stack_s x_0 x_1 x_2 w_1 3 ?x7656)))
 (let ((?x5302 (bvadd (_ bv63 6) ?x218)))
 (let ((?x917 (stack_s x_0 x_1 x_2 w_1 2 ?x5302)))
 (let ((?x7220 (bvadd (_ bv63 6) ?x275)))
 (let ((?x6400 (stack_s x_0 x_1 x_2 w_1 3 ?x7220)))
 (let (($x247 (exc_halt_s 2)))
 (let (($x97 (= $x247 (or (exc_halt_s 1) (not (bvsle (_ bv0 6) (bvadd (_ bv61 6) (sc_s 1))))))))
 (let (($x818 (forall ((w (_ BitVec 256)) )(let ((?x9035 (storage_s x_0 x_1 x_2 w_1 1 w)))
 (let ((?x10321 (storage_s x_0 x_1 x_2 w_1 2 w)))
 (= ?x10321 ?x9035))))
 ))
 (let (($x6614 (forall ((n (_ BitVec 6)) )(let ((?x9203 (stack_s x_0 x_1 x_2 w_1 1 n)))
 (let ((?x6572 (stack_s x_0 x_1 x_2 w_1 2 n)))
 (let (($x2752 (= ?x6572 ?x9203)))
 (or $x2752 (bvsle (bvadd (_ bv61 6) (sc_s 1)) n))))))
 ))
 (let ((?x154 (sc_s 1)))
 (let (($x7320 (= ?x218 ?x154)))
 (let ((?x9235 (used_gas_s x_0 x_1 x_2 w_1 2)))
 (let (($x942 (= ?x9235 (+ 3 (used_gas_s x_0 x_1 x_2 w_1 1)))))
 (let (($x189 (exc_halt_s 1)))
 (let (($x7324 (= $x189 (or $x57 (not (= ((_ extract 6 6) (bvadd (_ bv1 7) (concat (_ bv0 1) ?x72))) (_ bv0 1)))))))
 (let (($x3626 (forall ((w (_ BitVec 256)) )(let ((?x8578 (storage_s x_0 x_1 x_2 w_1 0 w)))
 (let ((?x9035 (storage_s x_0 x_1 x_2 w_1 1 w)))
 (= ?x9035 ?x8578))))
 ))
 (let (($x9486 (forall ((n (_ BitVec 6)) )(let ((?x72 (sc_s 0)))
 (let (($x7392 (bvsle ?x72 n)))
 (let ((?x9308 (stack_s x_0 x_1 x_2 w_1 0 n)))
 (let ((?x9203 (stack_s x_0 x_1 x_2 w_1 1 n)))
 (let (($x6181 (= ?x9203 ?x9308)))
 (or $x6181 $x7392)))))))
 ))
 (let (($x7356 (= ?x154 (bvadd (_ bv1 6) ?x72))))
 (let ((?x10310 (used_gas_s x_0 x_1 x_2 w_1 1)))
 (let (($x9774 (= ?x10310 (+ 3 ?x3556))))
 (let (($x657 (forall ((w (_ BitVec 256)) )(let ((?x8578 (storage_s x_0 x_1 x_2 w_1 0 w)))
 (= ?x8578 (_ bv0 256))))
 ))
 (let (($x10312 (= ?x3556 0)))
 (let (($x10338 (not $x57)))
 (let (($x9263 (= (stack_s x_0 x_1 x_2 w_1 0 (_ bv2 6)) x_2)))
 (let (($x8324 (= (stack_s x_0 x_1 x_2 w_1 0 (_ bv1 6)) x_1)))
 (let (($x9204 (= (stack_s x_0 x_1 x_2 w_1 0 (_ bv0 6)) x_0)))
 (let (($x96 (= ?x72 (_ bv3 6))))
 (and $x96 $x9204 $x8324 $x9263 $x10338 $x10312 $x657 (= (stack_s x_0 x_1 x_2 w_1 1 ?x72) w_1) $x9774 $x7356 $x9486 $x3626 $x7324 (= ?x917 (stack_s x_0 x_1 x_2 w_1 1 (bvadd (_ bv61 6) ?x154))) (= ?x526 (stack_s x_0 x_1 x_2 w_1 1 (bvadd (_ bv63 6) ?x154))) (= ?x941 (stack_s x_0 x_1 x_2 w_1 1 (bvadd (_ bv62 6) ?x154))) $x942 $x7320 $x6614 $x818 $x97 (= ?x6400 (stack_s x_0 x_1 x_2 w_1 2 (bvadd (_ bv60 6) ?x218))) (= (stack_s x_0 x_1 x_2 w_1 3 (bvadd (_ bv60 6) ?x275)) ?x917) (= ?x516 ?x526) (= ?x955 ?x941) $x1375 $x5222 $x2296 $x9337 $x8154 (= ?x512 ?x955) (= ?x3895 ?x6400) $x6391 $x8379 $x6756 $x6380 $x5426 $x2823 (= (stack_s x_0 x_1 x_2 w_1 5 ?x8662) ?x3895) (= (stack_s x_0 x_1 x_2 w_1 5 ?x1295) ?x512) $x8609 (= ?x805 (bvadd (_ bv1 6) ?x4305)) $x892 $x7138 (= $x3979 $x3207) $x6647 (= (stack_s x_0 x_1 x_2 w_1 6 (bvadd (_ bv60 6) ?x926)) ?x6293) $x9324 (= (stack_s x_0 x_1 x_2 w_1 6 (bvadd (_ bv62 6) ?x926)) ?x6367) $x9656 $x5196 $x103 $x841 $x824 $x863 $x9001 $x10447 $x10544 $x787 $x7167 $x9876 $x187 $x10446 $x3505 $x2635 $x9828 $x671 $x5262 $x2318 $x6377 $x5895 (= ?x7811 (stack_t x_0 x_1 x_2 w_1 2 (bvadd (_ bv60 6) ?x4056))) (= (stack_t x_0 x_1 x_2 w_1 3 (bvadd (_ bv60 6) ?x2012)) ?x9514) (= (stack_t x_0 x_1 x_2 w_1 3 (bvadd (_ bv61 6) ?x2012)) ?x9803) (= ?x9943 ?x4686) $x6359 $x8106 $x9412 $x1900 $x14 $x7807 $x9617 $x10445 (= (sc_t 4) ?x2012) $x836 $x9151 $x9675 (= (stack_t x_0 x_1 x_2 w_1 5 (sc_t 4)) w_1) $x9313 (= ?x919 (bvadd (_ bv1 6) (sc_t 4))) $x9752 $x1469 (= $x886 $x9335) $x73 $x6971 $x58 $x6010 $x9994 (not (and $x929 $x9707 $x889 $x6059))))))))))))))))))))))))))))))))))))))))))))))))))))))))))))))))))))))))))))))))))))))))))))))))))))))))))))))))))))))))))))))))))))))))))))))))))))))))))))
 )
(check-sat)
(get-proof)
